Au 
 1.0000000000000000
     2.9500000000000002    0.0000000000000000    0.0000000000000000
     1.4750000000000003    2.5547749411640939    0.0000000000000000
     0.0000000000000000    0.0000000000000000   44.8173298274735856
 Au 
   3
Direct
  0.0000000000000000  0.0000000000000000  0.4462559477994549
  0.3333333333333333  0.3333333333333333  0.4999999999999999
  0.6666666666666666  0.6666666666666666  0.5537440522005452
