fcc_film                                
   1.00000000000000     
     2.7957828016806272    0.0000000000000000    0.0000000000000000
    -1.3978914008403136    2.4212162756951514    0.0000000000000000
     0.0000000000000000    0.0000000000000000   50.0000000000000000
   Au
     6
Direct
  0.0009999999999977  0.0009999999999977  0.0078224486283925
  0.3343340063071096  0.6676680126142216  0.0583155731965314
  0.6676680125951080  0.3343340063071096  0.1077163834095261
  0.0009999999999977  0.0009999999999977  0.1572154165904733
  0.3343340063071096  0.6676680126142216  0.2066162268034679
  0.6676680125951080  0.3343340063071096  0.2571093513716067
 
  0.00000000E+00  0.00000000E+00  0.00000000E+00
  0.00000000E+00  0.00000000E+00  0.00000000E+00
  0.00000000E+00  0.00000000E+00  0.00000000E+00
  0.00000000E+00  0.00000000E+00  0.00000000E+00
  0.00000000E+00  0.00000000E+00  0.00000000E+00
  0.00000000E+00  0.00000000E+00  0.00000000E+00
