Au 
 1.0000000000000000
     2.9470500000000004    0.0000000000000000    0.0000000000000000
    -1.4735250000000002    2.5547749411640939    0.0000000000000000
     0.0000000000000000    0.0000000000000000   66.4953140511047280
 Au 
  12
Direct
  0.1000000000000000  0.1000000000000000  0.3007730737932762
  0.4333333333333333  0.7666666666666666  0.3369961512854078
  0.1000000000000000  0.1000000000000000  0.3732192287775394
  0.4333333333333333  0.7666666666666666  0.4094423062696709
  0.1000000000000000  0.1000000000000000  0.4456653837618025
  0.4333333333333333  0.7666666666666666  0.4818884612539340
  0.1000000000000000  0.1000000000000000  0.5181115387460656
  0.4333333333333333  0.7666666666666666  0.5543346162381972
  0.1000000000000000  0.1000000000000000  0.5905576937303288
  0.4333333333333333  0.7666666666666666  0.6267807712224603
  0.1000000000000000  0.1000000000000000  0.6630038487145919
  0.4333333333333333  0.7666666666666666  0.6992269262067236
