Au 
 1.0000000000000000
     2.9529500000000000    0.0000000000000000    0.0000000000000000
     1.4764750000000002    2.5573297161052575    0.0000000000000000
     0.0000000000000000    0.0000000000000000   66.4953140511047138
 Au 
  12
Direct
  0.1000000000000000  0.1000000000000000  0.3007730737932763
  0.7666666666666664  0.7666666666666668  0.3369961512854079
  0.4333333333333331  0.4333333333333332  0.3732192287775395
  0.1000000000000000  0.1000000000000000  0.4094423062696711
  0.7666666666666663  0.7666666666666665  0.4456653837618026
  0.4333333333333338  0.4333333333333327  0.4818884612539343
  0.1000000000000000  0.1000000000000000  0.5181115387460659
  0.7666666666666667  0.7666666666666668  0.5543346162381974
  0.4333333333333328  0.4333333333333327  0.5905576937303290
  0.1000000000000010  0.0999999999999985  0.6267807712224606
  0.7666666666666676  0.7666666666666654  0.6630038487145922
  0.4333333333333328  0.4333333333333322  0.6992269262067237
