Au 
 1.0000000000000000
     2.9411500000000004    0.0000000000000000    0.0000000000000000
     1.4705750000000004    2.5471106163406017    0.0000000000000000
     0.0000000000000000    0.0000000000000000   66.4953140511047138
 Au 
  12
Direct
  0.1000000000000000  0.1000000000000000  0.3007730737932763
  0.7666666666666667  0.7666666666666666  0.3369961512854079
  0.4333333333333333  0.4333333333333331  0.3732192287775395
  0.1000000000000000  0.1000000000000000  0.4094423062696711
  0.7666666666666665  0.7666666666666663  0.4456653837618026
  0.4333333333333340  0.4333333333333326  0.4818884612539343
  0.1000000000000000  0.1000000000000000  0.5181115387460659
  0.7666666666666669  0.7666666666666666  0.5543346162381974
  0.4333333333333331  0.4333333333333326  0.5905576937303290
  0.1000000000000010  0.0999999999999985  0.6267807712224606
  0.7666666666666678  0.7666666666666652  0.6630038487145922
  0.4333333333333331  0.4333333333333321  0.6992269262067237
