system_name                             
   2.85042300000000     
     1.0000000000000000    0.0000000000000000    0.0000000000000000
    -0.5000000000000000    0.8660254037844387    0.0000000000000000
     0.0000000000000000   -0.0000000000000000    5.0719132195754666
   Au
     6
Direct
  0.0000000000000000 -0.0000000000000000 -0.0000000000000000
  0.3333333333333357  0.6666666666666643  0.1666666666666643
  0.0000000000000000  0.0000000000000000  0.3333333333333357
  0.3333333333333357  0.6666666666666643  0.5000000000000000
  0.0000000000000000 -0.0000000000000000  0.6666666666666643
  0.3333333333333357  0.6666666666666643  0.8333333333333357
 
  0.00000000E+00  0.00000000E+00  0.00000000E+00
  0.00000000E+00  0.00000000E+00  0.00000000E+00
  0.00000000E+00  0.00000000E+00  0.00000000E+00
  0.00000000E+00  0.00000000E+00  0.00000000E+00
  0.00000000E+00  0.00000000E+00  0.00000000E+00
  0.00000000E+00  0.00000000E+00  0.00000000E+00
