Au thin film 0.999
 1.0000000000000000
     2.9470500000000004    0.0000000000000000    0.0000000000000000
    -1.4735250000000000    2.5547749411640939    0.0000000000000000
     0.0000000000000000    0.0000000000000000   66.4953140511047280
 Au 
  12
Direct
  0.1000000000000000  0.1000000000000000  0.3007730737932762
  0.7666666666666666  0.4333333333333331  0.3369961512854078
  0.4333333333333330  0.7666666666666663  0.3732192287775394
  0.0999999999999997  0.0999999999999997  0.4094423062696710
  0.7666666666666654  0.4333333333333325  0.4456653837618025
  0.4333333333333333  0.7666666666666658  0.4818884612539341
  0.0999999999999986  0.0999999999999990  0.5181115387460657
  0.7666666666666663  0.4333333333333328  0.5543346162381974
  0.4333333333333323  0.7666666666666654  0.5905576937303288
  0.0999999999999995  0.0999999999999981  0.6267807712224606
  0.7666666666666672  0.4333333333333315  0.6630038487145921
  0.4333333333333317  0.7666666666666656  0.6992269262067238
